NAME: random-14-31119
TYPE: TSP
COMMENT: size=14 seed=31119
DIMENSION: 30
EDGE_WEIGHT_TYPE: EUC_2D
NODE_COORD_SECTION
+0 33 460
-0 33 460
+1 57 357
-1 175 607
+2 904 729
-2 62 174
+3 422 473
-3 492 356
+4 318 118
-4 603 68
+5 880 74
-5 155 445
+6 483 168
-6 714 279
+7 689 325
-7 327 748
+8 879 154
-8 208 869
+9 12 645
-9 421 603
+10 584 943
-10 31 363
+11 437 788
-11 347 272
+12 644 223
-12 875 905
+13 99 898
-13 679 203
+14 823 26
-14 499 509
PRECEDENCE_SECTION
+0 -0
+1 -1
+2 -2
+3 -3
+4 -4
+5 -5
+6 -6
+7 -7
+8 -8
+9 -9
+10 -10
+11 -11
+12 -12
+13 -13
+14 -14
EOF
